DIMENSION: 26
EDGE_WEIGHT_TYPE: EXPLICIT
EDGE_WEIGHT_FORMAT: FULL_MATRIX
EDGE_WEIGHT_SECTION:
32767 32767 7 23 78 32767 32767 32767 83 36 32767 32767 32767 32767 32767 93 32767 32767 32767 59 32767 71 32767 32767 32767 32767 
32767 32767 85 32767 15 32767 32767 1 32767 32767 97 32767 32767 32767 94 32767 57 34 32767 32767 37 32767 32767 17 32767 32767 
7 85 32767 93 61 16 7 32767 32767 32767 32767 32767 32767 32767 32767 32767 32767 94 32767 32767 58 93 32767 32767 32767 32767 
23 32767 93 32767 32767 32767 39 32767 6 32767 41 53 22 32767 96 87 56 32767 32767 32767 32767 92 32767 32767 32767 32767 
78 15 61 32767 32767 32767 32767 32767 32767 32767 86 32767 78 32767 53 32767 32767 32767 32767 32767 32767 32767 32767 2 54 32767 
32767 32767 16 32767 32767 32767 32767 32767 32767 32767 99 54 32767 32767 16 32767 32767 32767 74 32767 92 92 19 32767 32767 32767 
32767 32767 7 39 32767 32767 32767 32767 25 58 32767 32767 32767 32767 32767 32767 32767 32767 32767 32767 32767 32767 84 32767 32767 32767 
32767 1 32767 32767 32767 32767 32767 32767 32767 46 32767 16 92 32767 32767 32767 51 32767 32767 32767 32767 41 32767 65 32767 32767 
83 32767 32767 6 32767 32767 25 32767 32767 32767 32767 39 32767 32767 32767 78 32767 32767 32767 32767 32767 32767 32767 32767 32767 25 
36 32767 32767 32767 32767 32767 58 46 32767 32767 6 32767 32767 32767 32767 65 32767 32767 32767 32767 32767 32767 32767 32767 32767 32767 
32767 97 32767 41 86 99 32767 32767 32767 6 32767 52 32767 32767 32767 32767 35 15 32767 32767 32767 8 32767 32767 32767 88 
32767 32767 32767 53 32767 54 32767 16 39 32767 52 32767 32767 94 32767 32767 32767 6 32767 32767 32767 32767 59 32767 32767 32767 
32767 32767 32767 22 78 32767 32767 92 32767 32767 32767 32767 32767 32767 32767 32767 32767 32767 64 32767 77 89 32767 63 32767 32767 
32767 32767 32767 32767 32767 32767 32767 32767 32767 32767 32767 94 32767 32767 32767 32767 32767 32767 16 32767 32767 3 7 32767 32767 36 
32767 94 32767 96 53 16 32767 32767 32767 32767 32767 32767 32767 32767 32767 32767 32767 32767 32767 32767 32767 78 32767 80 32767 32767 
93 32767 32767 87 32767 32767 32767 32767 78 65 32767 32767 32767 32767 32767 32767 32767 32767 32767 88 32767 3 32767 32767 32767 32767 
32767 57 32767 56 32767 32767 32767 51 32767 32767 35 32767 32767 32767 32767 32767 32767 32767 95 32767 32767 32767 32767 51 32767 32767 
32767 34 94 32767 32767 32767 32767 32767 32767 32767 15 6 32767 32767 32767 32767 32767 32767 83 32767 32767 32767 48 32767 18 32767 
32767 32767 32767 32767 32767 74 32767 32767 32767 32767 32767 32767 64 16 32767 32767 95 83 32767 57 95 32767 32767 5 32767 58 
59 32767 32767 32767 32767 32767 32767 32767 32767 32767 32767 32767 32767 32767 32767 88 32767 32767 57 32767 32767 32767 32767 32767 81 97 
32767 37 58 32767 32767 92 32767 32767 32767 32767 32767 32767 77 32767 32767 32767 32767 32767 95 32767 32767 32767 32767 29 32767 32767 
71 32767 93 92 32767 92 32767 41 32767 32767 8 32767 89 3 78 3 32767 32767 32767 32767 32767 32767 32767 32767 100 32767 
32767 32767 32767 32767 32767 19 84 32767 32767 32767 32767 59 32767 7 32767 32767 32767 48 32767 32767 32767 32767 32767 77 32767 71 
32767 17 32767 32767 2 32767 32767 65 32767 32767 32767 32767 63 32767 80 32767 51 32767 5 32767 29 32767 77 32767 32767 79 
32767 32767 32767 32767 54 32767 32767 32767 32767 32767 32767 32767 32767 32767 32767 32767 32767 18 32767 81 32767 100 32767 32767 32767 44 
32767 32767 32767 32767 32767 32767 32767 32767 25 32767 88 32767 32767 36 32767 32767 32767 32767 58 97 32767 32767 71 79 44 32767 
EOF